Route #1: 172 13 171 181 169 146 76 57 137 46 147 55 43 108
Route #2: 88 59 22 121 72 164 5 162 154 53 170 41
Route #3: 176 58 155 68 28 168 175 179 50 92 44 138 21
Route #4: 184 19 35 135 71 129 12 74 128 82 39 91 45
Route #5: 99 84 102 27 89 98 20 66 54 94 11 180
Route #6: 145 87 136 95 134 83 51 97 139 122 151 112
Route #7: 78 29 150 81 106 75 130 127 48 70 63 148 165
Route #8: 117 132 65 34 120 114 178 156 115 36 118 123 47
Route #9: 3 149 110 80 17 157 61 79 161 177 104 33
Route #10: 119 8 153 166 152 124 67 42 86 111 69 107 2 93
Route #11: 182 30 183 9 77 16 159 38 143 73 14 49
Route #12: 85 24 173 4 140 126 158 64 142 100 52
Route #13: 40 101 174 96 1 113 144 163 103 18 116 15 37
Route #14: 10 131 31 185 141 167 56 6 133 160 109 25
Route #15: 60 26 125 62 105 23 32 90 7
Cost 29503
